output/log/model_MTZL_burma14.log
Version identifier: 20.1.0.0 | 2020-11-10 | 9bedb6d68
CPXPARAM_RandomSeed                              1234
CPXPARAM_TimeLimit                               3600
Lazy constraint(s) or lazy constraint/branch callback is present.
    Disabling dual reductions (CPX_PARAM_REDUCE) in presolve.
    Disabling presolve reductions that prevent crushing forms (CPX_PARAM_PREREFORM).
Tried aggregator 1 time.
MIP Presolve eliminated 0 rows and 15 columns.
Reduced MIP has 28 rows, 195 columns, and 364 nonzeros.
Reduced MIP has 182 binaries, 13 generals, 0 SOSs, and 0 indicators.
Presolve time = 0.00 sec. (0.13 ticks)
Probing time = 0.00 sec. (0.25 ticks)
Tried aggregator 1 time.
Reduced MIP has 28 rows, 195 columns, and 364 nonzeros.
Reduced MIP has 182 binaries, 13 generals, 0 SOSs, and 0 indicators.
Presolve time = 0.00 sec. (0.12 ticks)
Probing time = 0.00 sec. (0.25 ticks)
Clique table members: 28.
Problem contains 156 lazy constraints.
MIP emphasis: balance optimality and feasibility.
MIP search method: dynamic search.
Parallel mode: deterministic, using up to 8 threads.
Root relaxation solution time = 0.00 sec. (0.09 ticks)

        Nodes                                         Cuts/
   Node  Left     Objective  IInf  Best Integer    Best Bound    ItCnt     Gap

      0     0     2786.0769    14                   2747.0000       10         
      0     0     3001.0000    22                     Cuts: 4       12         
      0     0     3006.5962    13                    Cuts: 22       30         
      0     0     3020.4000    33                     Cuts: 5       38         
      0     0     3026.4000    36                ZeroHalf: 14       44         
      0     0     3043.3333    13                 ZeroHalf: 5       46         
      0     0     3049.5000    14                     Cuts: 7       49         
      0     0     3049.5000    31                 ZeroHalf: 3       51         
      0     0     3049.5000    13                 ZeroHalf: 2       53         
      0     0     3054.5000    35                    Cuts: 10       59         
      0     0     3059.8000    39                 ZeroHalf: 5       64         
      0     0     3063.8000    35                 ZeroHalf: 1       66         
      0     0     3063.8000    35                 ZeroHalf: 2       67         
      0     2     3063.8000    40                   3063.8000       67         
Elapsed time = 0.03 sec. (17.14 ticks, tree = 0.02 MB, solutions = 0)
*    79    30      integral     0     3323.0000     3092.7179      287    6.93%

Cover cuts applied:  2
Mixed integer rounding cuts applied:  1
Zero-half cuts applied:  29
Gomory fractional cuts applied:  2
Lazy constraints applied:  86

Root node processing (before b&c):
  Real time             =    0.03 sec. (17.08 ticks)
Parallel b&c, 8 threads:
  Real time             =    0.03 sec. (9.79 ticks)
  Sync time (average)   =    0.01 sec.
  Wait time (average)   =    0.00 sec.
                          ------------
Total (root+branch&cut) =    0.06 sec. (26.87 ticks)
